row=6;
column=6;
left=[2, 0, 3, 0, 0, 0];
right=[2, 0, 3, 0, 0, 0];
top=[3, 2, 3, 0, 0, 0];
bottom=[2, 2, 4, 0, 0, 0];
Board=[|0,0,0,0,0,0|0,0,0,2,4,0|0,0,6,0,5,3|1,3,0,0,0,0|0,1,0,0,3,2|3,0,0,6,1,0|]